p cnf 60 602
1 2 3 0
4 5 6 0
7 8 9 0
10 11 12 0
13 14 15 0
16 17 18 0
19 20 21 0
22 23 24 0
25 26 27 0
28 29 30 0
31 32 33 0
34 35 36 0
37 38 39 0
40 41 42 0
43 44 45 0
46 47 48 0
49 50 51 0
52 53 54 0
55 56 57 0
58 59 60 0
-1 -2 0
-1 -3 0
-2 -3 0
-4 -5 0
-4 -6 0
-5 -6 0
-7 -8 0
-7 -9 0
-8 -9 0
-10 -11 0
-10 -12 0
-11 -12 0
-13 -14 0
-13 -15 0
-14 -15 0
-16 -17 0
-16 -18 0
-17 -18 0
-19 -20 0
-19 -21 0
-20 -21 0
-22 -23 0
-22 -24 0
-23 -24 0
-25 -26 0
-25 -27 0
-26 -27 0
-28 -29 0
-28 -30 0
-29 -30 0
-31 -32 0
-31 -33 0
-32 -33 0
-34 -35 0
-34 -36 0
-35 -36 0
-37 -38 0
-37 -39 0
-38 -39 0
-40 -41 0
-40 -42 0
-41 -42 0
-43 -44 0
-43 -45 0
-44 -45 0
-46 -47 0
-46 -48 0
-47 -48 0
-49 -50 0
-49 -51 0
-50 -51 0
-52 -53 0
-52 -54 0
-53 -54 0
-55 -56 0
-55 -57 0
-56 -57 0
-58 -59 0
-58 -60 0
-59 -60 0
-1 -4 0
-1 -7 0
-1 -10 0
-1 -13 0
-1 -16 0
-1 -19 0
-1 -22 0
-1 -37 0
-1 -46 0
-1 -52 0
-4 -1 0
-4 -22 0
-4 -25 0
-4 -28 0
-4 -34 0
-4 -37 0
-4 -40 0
-4 -43 0
-4 -49 0
-7 -1 0
-7 -10 0
-7 -16 0
-7 -19 0
-7 -25 0
-7 -31 0
-7 -40 0
-7 -43 0
-7 -46 0
-7 -52 0
-10 -1 0
-10 -7 0
-10 -13 0
-10 -16 0
-10 -25 0
-10 -28 0
-10 -37 0
-10 -40 0
-10 -43 0
-13 -1 0
-13 -10 0
-13 -22 0
-13 -28 0
-13 -31 0
-13 -34 0
-13 -37 0
-13 -40 0
-13 -43 0
-13 -55 0
-16 -1 0
-16 -7 0
-16 -10 0
-16 -19 0
-16 -25 0
-16 -28 0
-16 -31 0
-16 -34 0
-16 -43 0
-16 -52 0
-19 -1 0
-19 -7 0
-19 -16 0
-19 -31 0
-19 -34 0
-19 -40 0
-19 -43 0
-19 -46 0
-19 -52 0
-19 -55 0
-22 -1 0
-22 -4 0
-22 -13 0
-22 -28 0
-22 -37 0
-22 -40 0
-22 -43 0
-25 -4 0
-25 -7 0
-25 -10 0
-25 -16 0
-25 -34 0
-25 -37 0
-25 -43 0
-25 -46 0
-25 -52 0
-25 -55 0
-28 -4 0
-28 -10 0
-28 -13 0
-28 -16 0
-28 -22 0
-28 -31 0
-28 -34 0
-28 -49 0
-28 -52 0
-31 -7 0
-31 -13 0
-31 -16 0
-31 -19 0
-31 -28 0
-31 -34 0
-31 -37 0
-31 -40 0
-31 -43 0
-31 -46 0
-34 -4 0
-34 -13 0
-34 -16 0
-34 -19 0
-34 -25 0
-34 -28 0
-34 -31 0
-34 -40 0
-37 -1 0
-37 -4 0
-37 -10 0
-37 -13 0
-37 -22 0
-37 -25 0
-37 -31 0
-37 -52 0
-40 -4 0
-40 -7 0
-40 -10 0
-40 -13 0
-40 -19 0
-40 -22 0
-40 -31 0
-40 -34 0
-40 -52 0
-43 -4 0
-43 -7 0
-43 -10 0
-43 -13 0
-43 -16 0
-43 -19 0
-43 -22 0
-43 -25 0
-46 -1 0
-46 -7 0
-46 -19 0
-46 -25 0
-46 -31 0
-46 -49 0
-46 -52 0
-49 -4 0
-49 -28 0
-49 -31 0
-49 -46 0
-49 -52 0
-52 -1 0
-52 -7 0
-52 -16 0
-52 -19 0
-52 -25 0
-52 -28 0
-52 -37 0
-52 -40 0
-52 -46 0
-55 -1 0
-55 -4 0
-55 -7 0
-55 -13 0
-55 -19 0
-55 -25 0
-55 -37 0
-55 -40 0
-55 -46 0
-58 -10 0
-58 -13 0
-58 -16 0
-58 -19 0
-58 -22 0
-58 -25 0
-58 -28 0
-2 -5 0
-2 -8 0
-2 -11 0
-2 -14 0
-2 -17 0
-2 -20 0
-2 -23 0
-2 -38 0
-2 -47 0
-2 -53 0
-5 -2 0
-5 -23 0
-5 -26 0
-5 -29 0
-5 -35 0
-5 -38 0
-5 -41 0
-5 -44 0
-5 -50 0
-8 -2 0
-8 -11 0
-8 -17 0
-8 -20 0
-8 -26 0
-8 -32 0
-8 -41 0
-8 -44 0
-8 -47 0
-8 -53 0
-11 -2 0
-11 -8 0
-11 -14 0
-11 -17 0
-11 -26 0
-11 -29 0
-11 -38 0
-11 -41 0
-11 -44 0
-14 -2 0
-14 -11 0
-14 -23 0
-14 -29 0
-14 -32 0
-14 -35 0
-14 -38 0
-14 -41 0
-14 -44 0
-14 -56 0
-17 -2 0
-17 -8 0
-17 -11 0
-17 -20 0
-17 -26 0
-17 -29 0
-17 -32 0
-17 -35 0
-17 -44 0
-17 -53 0
-20 -2 0
-20 -8 0
-20 -17 0
-20 -32 0
-20 -35 0
-20 -41 0
-20 -44 0
-20 -47 0
-20 -53 0
-20 -56 0
-23 -2 0
-23 -5 0
-23 -14 0
-23 -29 0
-23 -38 0
-23 -41 0
-23 -44 0
-26 -5 0
-26 -8 0
-26 -11 0
-26 -17 0
-26 -35 0
-26 -38 0
-26 -44 0
-26 -47 0
-26 -53 0
-26 -56 0
-29 -5 0
-29 -11 0
-29 -14 0
-29 -17 0
-29 -23 0
-29 -32 0
-29 -35 0
-29 -50 0
-29 -53 0
-32 -8 0
-32 -14 0
-32 -17 0
-32 -20 0
-32 -29 0
-32 -35 0
-32 -38 0
-32 -41 0
-32 -44 0
-32 -47 0
-35 -5 0
-35 -14 0
-35 -17 0
-35 -20 0
-35 -26 0
-35 -29 0
-35 -32 0
-35 -41 0
-38 -2 0
-38 -5 0
-38 -11 0
-38 -14 0
-38 -23 0
-38 -26 0
-38 -32 0
-38 -53 0
-41 -5 0
-41 -8 0
-41 -11 0
-41 -14 0
-41 -20 0
-41 -23 0
-41 -32 0
-41 -35 0
-41 -53 0
-44 -5 0
-44 -8 0
-44 -11 0
-44 -14 0
-44 -17 0
-44 -20 0
-44 -23 0
-44 -26 0
-47 -2 0
-47 -8 0
-47 -20 0
-47 -26 0
-47 -32 0
-47 -50 0
-47 -53 0
-50 -5 0
-50 -29 0
-50 -32 0
-50 -47 0
-50 -53 0
-53 -2 0
-53 -8 0
-53 -17 0
-53 -20 0
-53 -26 0
-53 -29 0
-53 -38 0
-53 -41 0
-53 -47 0
-56 -2 0
-56 -5 0
-56 -8 0
-56 -14 0
-56 -20 0
-56 -26 0
-56 -38 0
-56 -41 0
-56 -47 0
-59 -11 0
-59 -14 0
-59 -17 0
-59 -20 0
-59 -23 0
-59 -26 0
-59 -29 0
-3 -6 0
-3 -9 0
-3 -12 0
-3 -15 0
-3 -18 0
-3 -21 0
-3 -24 0
-3 -39 0
-3 -48 0
-3 -54 0
-6 -3 0
-6 -24 0
-6 -27 0
-6 -30 0
-6 -36 0
-6 -39 0
-6 -42 0
-6 -45 0
-6 -51 0
-9 -3 0
-9 -12 0
-9 -18 0
-9 -21 0
-9 -27 0
-9 -33 0
-9 -42 0
-9 -45 0
-9 -48 0
-9 -54 0
-12 -3 0
-12 -9 0
-12 -15 0
-12 -18 0
-12 -27 0
-12 -30 0
-12 -39 0
-12 -42 0
-12 -45 0
-15 -3 0
-15 -12 0
-15 -24 0
-15 -30 0
-15 -33 0
-15 -36 0
-15 -39 0
-15 -42 0
-15 -45 0
-15 -57 0
-18 -3 0
-18 -9 0
-18 -12 0
-18 -21 0
-18 -27 0
-18 -30 0
-18 -33 0
-18 -36 0
-18 -45 0
-18 -54 0
-21 -3 0
-21 -9 0
-21 -18 0
-21 -33 0
-21 -36 0
-21 -42 0
-21 -45 0
-21 -48 0
-21 -54 0
-21 -57 0
-24 -3 0
-24 -6 0
-24 -15 0
-24 -30 0
-24 -39 0
-24 -42 0
-24 -45 0
-27 -6 0
-27 -9 0
-27 -12 0
-27 -18 0
-27 -36 0
-27 -39 0
-27 -45 0
-27 -48 0
-27 -54 0
-27 -57 0
-30 -6 0
-30 -12 0
-30 -15 0
-30 -18 0
-30 -24 0
-30 -33 0
-30 -36 0
-30 -51 0
-30 -54 0
-33 -9 0
-33 -15 0
-33 -18 0
-33 -21 0
-33 -30 0
-33 -36 0
-33 -39 0
-33 -42 0
-33 -45 0
-33 -48 0
-36 -6 0
-36 -15 0
-36 -18 0
-36 -21 0
-36 -27 0
-36 -30 0
-36 -33 0
-36 -42 0
-39 -3 0
-39 -6 0
-39 -12 0
-39 -15 0
-39 -24 0
-39 -27 0
-39 -33 0
-39 -54 0
-42 -6 0
-42 -9 0
-42 -12 0
-42 -15 0
-42 -21 0
-42 -24 0
-42 -33 0
-42 -36 0
-42 -54 0
-45 -6 0
-45 -9 0
-45 -12 0
-45 -15 0
-45 -18 0
-45 -21 0
-45 -24 0
-45 -27 0
-48 -3 0
-48 -9 0
-48 -21 0
-48 -27 0
-48 -33 0
-48 -51 0
-48 -54 0
-51 -6 0
-51 -30 0
-51 -33 0
-51 -48 0
-51 -54 0
-54 -3 0
-54 -9 0
-54 -18 0
-54 -21 0
-54 -27 0
-54 -30 0
-54 -39 0
-54 -42 0
-54 -48 0
-57 -3 0
-57 -6 0
-57 -9 0
-57 -15 0
-57 -21 0
-57 -27 0
-57 -39 0
-57 -42 0
-57 -48 0
-60 -12 0
-60 -15 0
-60 -18 0
-60 -21 0
-60 -24 0
-60 -27 0
-60 -30 0
